2 15
134 182 
0 55 57 66 75 3 32 2
1 55 53 102 96 10 28 1
2 26 23 90 94 100 55 1
3 93 88 39 43 34 27 2
4 23 17 77 68 79 74 1
5 12 11 59 57 77 8 1
6 22 22 43 49 29 95 2
7 37 37 67 75 70 54 1
8 21 26 98 93 21 39 2
9 72 71 15 18 5 71 1
10 92 93 49 39 24 57 1
11 23 28 29 39 10 21 2
12 32 25 60 68 40 60 2
13 42 37 79 84 70 15 1
14 89 86 19 12 28 24 1
